104446
103336
103336
98731.6
98731.6
98731.6
98662.7
98662.7
97406.1
95426.1
95426.1
95426.1
95426.1
95426.1
94347.1
94347.1
88500.2
88500.2
88500.2
88500.2
88500.2
88500.2
88452.1
87445.7
87445.7
87445.7
87445.7
87445.7
87445.7
86066.7
86066.7
86066.7
84914
84528.1
84440.8
84230.8
84230.8
84230.8
82324.7
82324.7
82324.7
82324.7
80846.1
80846.1
78913.1
78738.6
78738.6
78738.6
78738.6
78738.6
78738.6
78738.6
78738.6
78738.6
78738.6
78446.2
76661.4
76661.4
76661.4
76661.4
76661.4
76661.4
76661.4
76324.1
75829.9
75829.9
75829.9
75829.9
75103.6
75103.6
75103.6
75103.6
75103.6
75103.6
74197
72333.9
72333.9
72333.9
72333.9
72333.9
72333.9
72333.9
72333.9
72333.9
72316.3
72316.3
72316.3
71652.7
71652.7
71652.7
71652.7
71652.7
71652.7
71652.7
71652.7
71652.7
69812.1
67579.7
67579.7
67579.7
